presolving:
(round 1, fast)       200 del vars, 400 del conss, 0 add conss, 200 chg bounds, 0 chg sides, 0 chg coeffs, 0 upgd conss, 0 impls, 7437 clqs
   (0.2s) running MILP presolver
   (0.3s) MILP presolver found nothing
(round 2, exhaustive) 200 del vars, 400 del conss, 0 add conss, 200 chg bounds, 0 chg sides, 0 chg coeffs, 7437 upgd conss, 0 impls, 7437 clqs
   (0.9s) probing: 51/7600 (0.7%) - 0 fixings, 0 aggregations, 0 implications, 0 bound changes
   (0.9s) probing aborted: 50/50 successive totally useless probings
   (0.9s) symmetry computation started: requiring (bin +, int -, cont +), (fixed: bin -, int +, cont -)
   (0.9s) no symmetry present
presolving (3 rounds: 3 fast, 2 medium, 2 exhaustive):
 200 deleted vars, 400 deleted constraints, 0 added constraints, 200 tightened bounds, 0 added holes, 0 changed sides, 0 changed coefficients
 0 implications, 7437 cliques
presolved problem has 7600 variables (7600 bin, 0 int, 0 impl, 0 cont) and 7437 constraints
   7437 constraints of type <setppc>
transformed objective value is always integral (scale: 1)
Presolving Time: 0.87

 time | node  | left  |LP iter|LP it/n|mem/heur|mdpt |vars |cons |rows |cuts |sepa|confs|strbr|  dualbound   | primalbound  |  gap   | compl. 
p 1.2s|     1 |     0 |     0 |     - |  clique|   0 |7600 |7437 |7437 |   0 |  0 |   0 |   0 | 0.000000e+00 | 1.220150e+05 |    Inf | unknown
p 1.4s|     1 |     0 |     0 |     - | vbounds|   0 |7600 |7437 |7437 |   0 |  0 |   0 |   0 | 0.000000e+00 | 5.149800e+04 |    Inf | unknown
p 1.5s|     1 |     0 |     0 |     - | vbounds|   0 |7600 |7437 |7437 |   0 |  0 |   0 |   0 | 0.000000e+00 | 5.107500e+04 |    Inf | unknown
  3.7s|     1 |     0 |  5284 |     - |    97M |   0 |7600 |7449 |7437 |   0 |  0 |  12 |   0 | 4.874834e+04 | 5.107500e+04 |   4.77%| unknown
  4.2s|     1 |     0 |  5491 |     - |    99M |   0 |7600 |7449 |7438 |   1 |  1 |  12 |   0 | 4.876693e+04 | 5.107500e+04 |   4.73%| unknown
  4.9s|     1 |     0 |  6201 |     - |   100M |   0 |7600 |7449 |7439 |   2 |  2 |  12 |   0 | 4.878350e+04 | 5.107500e+04 |   4.70%| unknown
d24.7s|     1 |     0 | 32372 |     - |farkasdi|   0 |7600 |7449 |7439 |   0 |  4 |  12 |   0 | 4.878350e+04 | 5.037200e+04 |   3.26%| unknown
o25.6s|     1 |     0 | 34974 |     - |feaspump|   0 |7600 |7449 |7439 |   2 |  4 |  12 |   0 | 4.878350e+04 | 4.938800e+04 |   1.24%| unknown
L29.7s|     1 |     0 | 40659 |     - |    rens|   0 |7600 |7456 |7439 |   2 |  4 |  19 |   0 | 4.878350e+04 | 4.932600e+04 |   1.11%| unknown
 30.0s|     1 |     0 | 40659 |     - |   103M |   0 |7600 |7456 |7439 |   2 |  4 |  19 |   0 | 4.878350e+04 | 4.932600e+04 |   1.11%| unknown
 30.0s|     1 |     0 | 40659 |     - |   104M |   0 |7600 |7456 |4983 |   2 |  4 |  19 |   0 | 4.878350e+04 | 4.932600e+04 |   1.11%| unknown
 30.4s|     1 |     0 | 40872 |     - |   105M |   0 |7600 |4999 |4976 |   3 |  5 |  19 |   0 | 4.879108e+04 | 4.932600e+04 |   1.10%| unknown
 30.5s|     1 |     0 | 40872 |     - |   105M |   0 |7600 |4999 |4907 |   3 |  5 |  19 |   0 | 4.879108e+04 | 4.932600e+04 |   1.10%| unknown
 30.5s|     1 |     0 | 40872 |     - |   105M |   0 |7600 |2897 |4907 |   3 |  6 |  19 |   0 | 4.879108e+04 | 4.932600e+04 |   1.10%| unknown
 31.0s|     1 |     0 | 41250 |     - |   106M |   0 |7600 |2897 |4909 |   5 |  7 |  19 |   0 | 4.880991e+04 | 4.932600e+04 |   1.06%| unknown
 time | node  | left  |LP iter|LP it/n|mem/heur|mdpt |vars |cons |rows |cuts |sepa|confs|strbr|  dualbound   | primalbound  |  gap   | compl. 
 31.1s|     1 |     0 | 41250 |     - |   106M |   0 |7600 |2897 |4823 |   5 |  7 |  19 |   0 | 4.880991e+04 | 4.932600e+04 |   1.06%| unknown
 31.1s|     1 |     0 | 41250 |     - |   106M |   0 |7600 |2871 |4823 |   5 |  8 |  19 |   0 | 4.880991e+04 | 4.932600e+04 |   1.06%| unknown
 32.0s|     1 |     0 | 41689 |     - |   107M |   0 |7600 |2871 |4825 |   7 |  9 |  19 |   0 | 4.882895e+04 | 4.932600e+04 |   1.02%| unknown
 32.0s|     1 |     0 | 41689 |     - |   107M |   0 |7600 |2871 |4759 |   7 |  9 |  19 |   0 | 4.882895e+04 | 4.932600e+04 |   1.02%| unknown
(run 1, node 1) restarting after 4701 global fixings of integer variables

(restart) converted 7 cuts from the global cut pool into linear constraints

presolving:
(round 1, fast)       4701 del vars, 8 del conss, 0 add conss, 0 chg bounds, 0 chg sides, 2321 chg coeffs, 0 upgd conss, 0 impls, 2851 clqs
   (32.1s) running MILP presolver
   (32.1s) MILP presolver found nothing
(round 2, exhaustive) 4701 del vars, 8 del conss, 0 add conss, 0 chg bounds, 0 chg sides, 2321 chg coeffs, 7 upgd conss, 0 impls, 2851 clqs
presolving (3 rounds: 3 fast, 2 medium, 2 exhaustive):
 4701 deleted vars, 8 deleted constraints, 0 added constraints, 0 tightened bounds, 0 added holes, 0 changed sides, 2321 changed coefficients
 0 implications, 2851 cliques
presolved problem has 2899 variables (2899 bin, 0 int, 0 impl, 0 cont) and 2868 constraints
      7 constraints of type <knapsack>
   2851 constraints of type <setppc>
     10 constraints of type <logicor>
transformed objective value is always integral (scale: 1)
Presolving Time: 1.01
transformed 3/6 original solutions to the transformed problem space

 time | node  | left  |LP iter|LP it/n|mem/heur|mdpt |vars |cons |rows |cuts |sepa|confs|strbr|  dualbound   | primalbound  |  gap   | compl. 
 33.2s|     1 |     0 | 45272 |     - |   107M |   0 |2899 |2868 |2858 |   0 |  0 |  19 |   0 | 4.882895e+04 | 4.932600e+04 |   1.02%| unknown
 33.6s|     1 |     0 | 45386 |     - |   108M |   0 |2899 |2868 |2859 |   1 |  1 |  19 |   0 | 4.883198e+04 | 4.932600e+04 |   1.01%| unknown
 33.6s|     1 |     0 | 45386 |     - |   108M |   0 |2899 |2868 |2858 |   1 |  1 |  19 |   0 | 4.883198e+04 | 4.932600e+04 |   1.01%| unknown
 33.9s|     1 |     0 | 45568 |     - |   108M |   0 |2899 |2867 |2859 |   2 |  2 |  19 |   0 | 4.883605e+04 | 4.932600e+04 |   1.00%| unknown
 34.3s|     1 |     0 | 45710 |     - |   108M |   0 |2899 |2867 |2860 |   3 |  3 |  19 |   0 | 4.884069e+04 | 4.932600e+04 |   0.99%| unknown
 34.5s|     1 |     0 | 45807 |     - |   109M |   0 |2899 |2867 |2861 |   4 |  4 |  19 |   0 | 4.884382e+04 | 4.932600e+04 |   0.99%| unknown
 34.9s|     1 |     0 | 46012 |     - |   109M |   0 |2899 |2867 |2862 |   5 |  5 |  19 |   0 | 4.884874e+04 | 4.932600e+04 |   0.98%| unknown
 35.3s|     1 |     0 | 46131 |     - |   110M |   0 |2899 |2867 |2863 |   6 |  6 |  19 |   0 | 4.885205e+04 | 4.932600e+04 |   0.97%| unknown
 35.7s|     1 |     0 | 46206 |     - |   111M |   0 |2899 |2867 |2864 |   7 |  7 |  19 |   0 | 4.885369e+04 | 4.932600e+04 |   0.97%| unknown
 36.2s|     1 |     0 | 46478 |     - |   111M |   0 |2899 |2867 |2865 |   8 |  8 |  19 |   0 | 4.885957e+04 | 4.932600e+04 |   0.95%| unknown
 36.4s|     1 |     0 | 46555 |     - |   112M |   0 |2899 |2867 |2866 |   9 |  9 |  19 |   0 | 4.886081e+04 | 4.932600e+04 |   0.95%| unknown
 36.9s|     1 |     0 | 46713 |     - |   112M |   0 |2899 |2867 |2867 |  10 | 10 |  19 |   0 | 4.886304e+04 | 4.932600e+04 |   0.95%| unknown
 37.1s|     1 |     0 | 46779 |     - |   113M |   0 |2899 |2867 |2868 |  11 | 11 |  19 |   0 | 4.886406e+04 | 4.932600e+04 |   0.95%| unknown
 37.4s|     1 |     0 | 46905 |     - |   113M |   0 |2899 |2867 |2869 |  12 | 12 |  19 |   0 | 4.886609e+04 | 4.932600e+04 |   0.94%| unknown
 50.2s|     1 |     2 | 49554 |     - |   114M |   0 |2899 |2880 |2869 |  12 | 14 |  32 |  26 | 4.889047e+04 | 4.932600e+04 |   0.89%| unknown

SCIP Status        : problem is solved [optimal solution found]
Solving Time (sec) : 94.12
Solving Nodes      : 19 (total of 20 nodes in 2 runs)
Primal Bound       : +4.93260000000000e+04 (7 solutions)
Dual Bound         : +4.93260000000000e+04
Gap                : 0.00 %
Solve Status: optimal
Solve Time: 94.13 seconds
Objective Value: 49326.00
